Minimize
	value: tt

Subject to
tt + 1000 s_1_1 > 0.0
tt - t_1_1 - 1006.219592 s_1_1  + 3.109796 s_1_8  + 3.109796 s_1_7  > -977.376811
tt + 1000 s_2_1 > 0.0
tt - t_2_1 - 1005.653373 s_2_1  + 2.826686 s_2_8  + 2.826686 s_2_7  > -958.136469
tt + 1000 s_1_2 > 0.0
tt - t_1_2 - 1003.109796 s_1_2  + 3.109796 s_1_7  > -977.238900
tt + 1000 s_2_2 > 0.0
tt - t_2_2 - 1002.826686 s_2_2  + 2.826686 s_2_7  > -958.128014
tt + 1000 s_1_3 > 0.0
tt - t_1_3 - 1006.219592 s_1_3  + 3.109796 s_1_8  + 3.109796 s_1_7  > -997.552544
tt + 1000 s_2_3 > 0.0
tt - t_2_3 - 1005.653373 s_2_3  + 2.826686 s_2_8  + 2.826686 s_2_7  > -994.438400
tt + 1000 s_1_4 > 0.0
tt - t_1_4 - 1003.109796 s_1_4  + 3.109796 s_1_7  > -995.020500
tt + 1000 s_2_4 > 0.0
tt - t_2_4 - 1002.826686 s_2_4  + 2.826686 s_2_7  > -991.557278
tt + 1000 s_1_5 > 0.0
tt - t_1_5 - 1003.109796 s_1_5  + 3.109796 s_1_8  > -989.411000
tt + 1000 s_2_5 > 0.0
tt - t_2_5 - 1002.826686 s_2_5  + 2.826686 s_2_8  > -979.477747
tt + 1000 s_1_6 > 0.0
tt - t_1_6 - 1018.658775 s_1_6  + 3.109796 s_1_1  + 3.109796 s_1_5  + 3.109796 s_1_7  + 3.109796 s_1_3  + 3.109796 s_1_2  + 3.109796 s_1_4  > -998.355700
tt + 1000 s_2_6 > 0.0
tt - t_2_6 - 1016.960118 s_2_6  + 2.826686 s_2_1  + 2.826686 s_2_5  + 2.826686 s_2_7  + 2.826686 s_2_3  + 2.826686 s_2_2  + 2.826686 s_2_4  > -996.064200
tt + 1000 s_1_7 > 0.0
tt - t_1_7 - 1000.000000 s_1_7  > -952.838400
tt + 1000 s_2_7 > 0.0
tt - t_2_7 - 1000.000000 s_2_7  > -955.364225
tt + 1000 s_1_8 > 0.0
tt - t_1_8 - 1000.000000 s_1_8  > -949.439700
tt + 1000 s_2_8 > 0.0
tt - t_2_8 - 1000.000000 s_2_8  > -956.290100
s_1_1 + s_2_1 = 1
s_1_2 + s_2_2 = 1
s_1_3 + s_2_3 = 1
s_1_4 + s_2_4 = 1
s_1_5 + s_2_5 = 1
s_1_6 + s_2_6 = 1
s_1_7 + s_2_7 = 1
s_1_8 + s_2_8 = 1
s_1_1 + s_1_2 + 1000 r_1_1_2 >= 2
- s_1_1 - s_1_2 - 1000 r_1_1_2 >= -1001
t_1_1 - t_1_2 - 1000.000000 u_1_1_2 - 3.109796 s_1_2  + 3.109796 s_1_7  + 2000.000000 r_1_1_2 > -977.238900
s_2_1 + s_2_2 + 1000 r_2_1_2 >= 2
- s_2_1 - s_2_2 - 1000 r_2_1_2 >= -1001
t_2_1 - t_2_2 - 1000.000000 u_2_1_2 - 2.826686 s_2_2  + 2.826686 s_2_7  + 2000.000000 r_2_1_2 > -958.128014
s_1_1 + s_1_3 + 1000 r_1_1_3 >= 2
- s_1_1 - s_1_3 - 1000 r_1_1_3 >= -1001
t_1_1 - t_1_3 - 1000.000000 u_1_1_3 - 6.219592 s_1_3  + 3.109796 s_1_8  + 3.109796 s_1_7  + 2000.000000 r_1_1_3 > -997.552544
s_2_1 + s_2_3 + 1000 r_2_1_3 >= 2
- s_2_1 - s_2_3 - 1000 r_2_1_3 >= -1001
t_2_1 - t_2_3 - 1000.000000 u_2_1_3 - 5.653373 s_2_3  + 2.826686 s_2_8  + 2.826686 s_2_7  + 2000.000000 r_2_1_3 > -994.438400
s_1_1 + s_1_4 + 1000 r_1_1_4 >= 2
- s_1_1 - s_1_4 - 1000 r_1_1_4 >= -1001
t_1_1 - t_1_4 - 1000.000000 u_1_1_4 - 3.109796 s_1_4  + 3.109796 s_1_7  + 2000.000000 r_1_1_4 > -995.020500
s_2_1 + s_2_4 + 1000 r_2_1_4 >= 2
- s_2_1 - s_2_4 - 1000 r_2_1_4 >= -1001
t_2_1 - t_2_4 - 1000.000000 u_2_1_4 - 2.826686 s_2_4  + 2.826686 s_2_7  + 2000.000000 r_2_1_4 > -991.557278
s_1_1 + s_1_5 + 1000 r_1_1_5 >= 2
- s_1_1 - s_1_5 - 1000 r_1_1_5 >= -1001
t_1_1 - t_1_5 - 1000.000000 u_1_1_5 - 3.109796 s_1_5  + 3.109796 s_1_8  + 2000.000000 r_1_1_5 > -989.411000
s_2_1 + s_2_5 + 1000 r_2_1_5 >= 2
- s_2_1 - s_2_5 - 1000 r_2_1_5 >= -1001
t_2_1 - t_2_5 - 1000.000000 u_2_1_5 - 2.826686 s_2_5  + 2.826686 s_2_8  + 2000.000000 r_2_1_5 > -979.477747
t_1_6 - t_1_1 - 1006.219592 s_1_1  + 3.109796 s_1_8  + 3.109796 s_1_7  > -977.376811
t_1_6 - t_2_1 - 1005.653373 s_2_1  + 2.826686 s_2_8  + 2.826686 s_2_7  > -958.136469
t_2_6 - t_1_1 - 1006.219592 s_1_1  + 3.109796 s_1_8  + 3.109796 s_1_7  > -977.376811
t_2_6 - t_2_1 - 1005.653373 s_2_1  + 2.826686 s_2_8  + 2.826686 s_2_7  > -958.136469
t_1_1 - t_1_7 - 1000.000000 s_1_7  > -952.838400
t_1_1 - t_2_7 - 1000.000000 s_2_7  > -955.364225
t_2_1 - t_1_7 - 1000.000000 s_1_7  > -952.838400
t_2_1 - t_2_7 - 1000.000000 s_2_7  > -955.364225
t_1_1 - t_1_8 - 1000.000000 s_1_8  > -949.439700
t_1_1 - t_2_8 - 1000.000000 s_2_8  > -956.290100
t_2_1 - t_1_8 - 1000.000000 s_1_8  > -949.439700
t_2_1 - t_2_8 - 1000.000000 s_2_8  > -956.290100
s_1_2 + s_1_1 + 1000 r_1_1_2 >= 2
- s_1_2 - s_1_1 - 1000 r_1_1_2 >= -1001
t_1_2 - t_1_1 + 1000.000000 u_1_1_2 - 6.219592 s_1_1  + 3.109796 s_1_8  + 3.109796 s_1_7  + 2000.000000 r_1_1_2 > 22.623189
s_2_2 + s_2_1 + 1000 r_2_1_2 >= 2
- s_2_2 - s_2_1 - 1000 r_2_1_2 >= -1001
t_2_2 - t_2_1 + 1000.000000 u_2_1_2 - 5.653373 s_2_1  + 2.826686 s_2_8  + 2.826686 s_2_7  + 2000.000000 r_2_1_2 > 41.863531
s_1_2 + s_1_3 + 1000 r_1_2_3 >= 2
- s_1_2 - s_1_3 - 1000 r_1_2_3 >= -1001
t_1_2 - t_1_3 - 1000.000000 u_1_2_3 - 6.219592 s_1_3  + 3.109796 s_1_8  + 3.109796 s_1_7  + 2000.000000 r_1_2_3 > -997.552544
s_2_2 + s_2_3 + 1000 r_2_2_3 >= 2
- s_2_2 - s_2_3 - 1000 r_2_2_3 >= -1001
t_2_2 - t_2_3 - 1000.000000 u_2_2_3 - 5.653373 s_2_3  + 2.826686 s_2_8  + 2.826686 s_2_7  + 2000.000000 r_2_2_3 > -994.438400
s_1_2 + s_1_4 + 1000 r_1_2_4 >= 2
- s_1_2 - s_1_4 - 1000 r_1_2_4 >= -1001
t_1_2 - t_1_4 - 1000.000000 u_1_2_4 - 3.109796 s_1_4  + 3.109796 s_1_7  + 2000.000000 r_1_2_4 > -995.020500
s_2_2 + s_2_4 + 1000 r_2_2_4 >= 2
- s_2_2 - s_2_4 - 1000 r_2_2_4 >= -1001
t_2_2 - t_2_4 - 1000.000000 u_2_2_4 - 2.826686 s_2_4  + 2.826686 s_2_7  + 2000.000000 r_2_2_4 > -991.557278
s_1_2 + s_1_5 + 1000 r_1_2_5 >= 2
- s_1_2 - s_1_5 - 1000 r_1_2_5 >= -1001
t_1_2 - t_1_5 - 1000.000000 u_1_2_5 - 3.109796 s_1_5  + 3.109796 s_1_8  + 2000.000000 r_1_2_5 > -989.411000
s_2_2 + s_2_5 + 1000 r_2_2_5 >= 2
- s_2_2 - s_2_5 - 1000 r_2_2_5 >= -1001
t_2_2 - t_2_5 - 1000.000000 u_2_2_5 - 2.826686 s_2_5  + 2.826686 s_2_8  + 2000.000000 r_2_2_5 > -979.477747
t_1_6 - t_1_2 - 1003.109796 s_1_2  + 3.109796 s_1_7  > -977.238900
t_1_6 - t_2_2 - 1002.826686 s_2_2  + 2.826686 s_2_7  > -958.128014
t_2_6 - t_1_2 - 1003.109796 s_1_2  + 3.109796 s_1_7  > -977.238900
t_2_6 - t_2_2 - 1002.826686 s_2_2  + 2.826686 s_2_7  > -958.128014
t_1_2 - t_1_7 - 1000.000000 s_1_7  > -952.838400
t_1_2 - t_2_7 - 1000.000000 s_2_7  > -955.364225
t_2_2 - t_1_7 - 1000.000000 s_1_7  > -952.838400
t_2_2 - t_2_7 - 1000.000000 s_2_7  > -955.364225
s_1_2 + s_1_8 + 1000 r_1_2_8 >= 2
- s_1_2 - s_1_8 - 1000 r_1_2_8 >= -1001
t_1_2 - t_1_8 - 1000.000000 u_1_2_8 - 0.000000 s_1_8  + 2000.000000 r_1_2_8 > -949.439700
s_2_2 + s_2_8 + 1000 r_2_2_8 >= 2
- s_2_2 - s_2_8 - 1000 r_2_2_8 >= -1001
t_2_2 - t_2_8 - 1000.000000 u_2_2_8 - 0.000000 s_2_8  + 2000.000000 r_2_2_8 > -956.290100
s_1_3 + s_1_1 + 1000 r_1_1_3 >= 2
- s_1_3 - s_1_1 - 1000 r_1_1_3 >= -1001
t_1_3 - t_1_1 + 1000.000000 u_1_1_3 - 6.219592 s_1_1  + 3.109796 s_1_8  + 3.109796 s_1_7  + 2000.000000 r_1_1_3 > 22.623189
s_2_3 + s_2_1 + 1000 r_2_1_3 >= 2
- s_2_3 - s_2_1 - 1000 r_2_1_3 >= -1001
t_2_3 - t_2_1 + 1000.000000 u_2_1_3 - 5.653373 s_2_1  + 2.826686 s_2_8  + 2.826686 s_2_7  + 2000.000000 r_2_1_3 > 41.863531
s_1_3 + s_1_2 + 1000 r_1_2_3 >= 2
- s_1_3 - s_1_2 - 1000 r_1_2_3 >= -1001
t_1_3 - t_1_2 + 1000.000000 u_1_2_3 - 3.109796 s_1_2  + 3.109796 s_1_7  + 2000.000000 r_1_2_3 > 22.761100
s_2_3 + s_2_2 + 1000 r_2_2_3 >= 2
- s_2_3 - s_2_2 - 1000 r_2_2_3 >= -1001
t_2_3 - t_2_2 + 1000.000000 u_2_2_3 - 2.826686 s_2_2  + 2.826686 s_2_7  + 2000.000000 r_2_2_3 > 41.871986
s_1_3 + s_1_4 + 1000 r_1_3_4 >= 2
- s_1_3 - s_1_4 - 1000 r_1_3_4 >= -1001
t_1_3 - t_1_4 - 1000.000000 u_1_3_4 - 3.109796 s_1_4  + 3.109796 s_1_7  + 2000.000000 r_1_3_4 > -995.020500
s_2_3 + s_2_4 + 1000 r_2_3_4 >= 2
- s_2_3 - s_2_4 - 1000 r_2_3_4 >= -1001
t_2_3 - t_2_4 - 1000.000000 u_2_3_4 - 2.826686 s_2_4  + 2.826686 s_2_7  + 2000.000000 r_2_3_4 > -991.557278
s_1_3 + s_1_5 + 1000 r_1_3_5 >= 2
- s_1_3 - s_1_5 - 1000 r_1_3_5 >= -1001
t_1_3 - t_1_5 - 1000.000000 u_1_3_5 - 3.109796 s_1_5  + 3.109796 s_1_8  + 2000.000000 r_1_3_5 > -989.411000
s_2_3 + s_2_5 + 1000 r_2_3_5 >= 2
- s_2_3 - s_2_5 - 1000 r_2_3_5 >= -1001
t_2_3 - t_2_5 - 1000.000000 u_2_3_5 - 2.826686 s_2_5  + 2.826686 s_2_8  + 2000.000000 r_2_3_5 > -979.477747
t_1_6 - t_1_3 - 1006.219592 s_1_3  + 3.109796 s_1_8  + 3.109796 s_1_7  > -997.552544
t_1_6 - t_2_3 - 1005.653373 s_2_3  + 2.826686 s_2_8  + 2.826686 s_2_7  > -994.438400
t_2_6 - t_1_3 - 1006.219592 s_1_3  + 3.109796 s_1_8  + 3.109796 s_1_7  > -997.552544
t_2_6 - t_2_3 - 1005.653373 s_2_3  + 2.826686 s_2_8  + 2.826686 s_2_7  > -994.438400
t_1_3 - t_1_7 - 1000.000000 s_1_7  > -952.838400
t_1_3 - t_2_7 - 1000.000000 s_2_7  > -955.364225
t_2_3 - t_1_7 - 1000.000000 s_1_7  > -952.838400
t_2_3 - t_2_7 - 1000.000000 s_2_7  > -955.364225
t_1_3 - t_1_8 - 1000.000000 s_1_8  > -949.439700
t_1_3 - t_2_8 - 1000.000000 s_2_8  > -956.290100
t_2_3 - t_1_8 - 1000.000000 s_1_8  > -949.439700
t_2_3 - t_2_8 - 1000.000000 s_2_8  > -956.290100
s_1_4 + s_1_1 + 1000 r_1_1_4 >= 2
- s_1_4 - s_1_1 - 1000 r_1_1_4 >= -1001
t_1_4 - t_1_1 + 1000.000000 u_1_1_4 - 6.219592 s_1_1  + 3.109796 s_1_8  + 3.109796 s_1_7  + 2000.000000 r_1_1_4 > 22.623189
s_2_4 + s_2_1 + 1000 r_2_1_4 >= 2
- s_2_4 - s_2_1 - 1000 r_2_1_4 >= -1001
t_2_4 - t_2_1 + 1000.000000 u_2_1_4 - 5.653373 s_2_1  + 2.826686 s_2_8  + 2.826686 s_2_7  + 2000.000000 r_2_1_4 > 41.863531
s_1_4 + s_1_2 + 1000 r_1_2_4 >= 2
- s_1_4 - s_1_2 - 1000 r_1_2_4 >= -1001
t_1_4 - t_1_2 + 1000.000000 u_1_2_4 - 3.109796 s_1_2  + 3.109796 s_1_7  + 2000.000000 r_1_2_4 > 22.761100
s_2_4 + s_2_2 + 1000 r_2_2_4 >= 2
- s_2_4 - s_2_2 - 1000 r_2_2_4 >= -1001
t_2_4 - t_2_2 + 1000.000000 u_2_2_4 - 2.826686 s_2_2  + 2.826686 s_2_7  + 2000.000000 r_2_2_4 > 41.871986
s_1_4 + s_1_3 + 1000 r_1_3_4 >= 2
- s_1_4 - s_1_3 - 1000 r_1_3_4 >= -1001
t_1_4 - t_1_3 + 1000.000000 u_1_3_4 - 6.219592 s_1_3  + 3.109796 s_1_8  + 3.109796 s_1_7  + 2000.000000 r_1_3_4 > 2.447456
s_2_4 + s_2_3 + 1000 r_2_3_4 >= 2
- s_2_4 - s_2_3 - 1000 r_2_3_4 >= -1001
t_2_4 - t_2_3 + 1000.000000 u_2_3_4 - 5.653373 s_2_3  + 2.826686 s_2_8  + 2.826686 s_2_7  + 2000.000000 r_2_3_4 > 5.561600
s_1_4 + s_1_5 + 1000 r_1_4_5 >= 2
- s_1_4 - s_1_5 - 1000 r_1_4_5 >= -1001
t_1_4 - t_1_5 - 1000.000000 u_1_4_5 - 3.109796 s_1_5  + 3.109796 s_1_8  + 2000.000000 r_1_4_5 > -989.411000
s_2_4 + s_2_5 + 1000 r_2_4_5 >= 2
- s_2_4 - s_2_5 - 1000 r_2_4_5 >= -1001
t_2_4 - t_2_5 - 1000.000000 u_2_4_5 - 2.826686 s_2_5  + 2.826686 s_2_8  + 2000.000000 r_2_4_5 > -979.477747
t_1_6 - t_1_4 - 1003.109796 s_1_4  + 3.109796 s_1_7  > -995.020500
t_1_6 - t_2_4 - 1002.826686 s_2_4  + 2.826686 s_2_7  > -991.557278
t_2_6 - t_1_4 - 1003.109796 s_1_4  + 3.109796 s_1_7  > -995.020500
t_2_6 - t_2_4 - 1002.826686 s_2_4  + 2.826686 s_2_7  > -991.557278
t_1_4 - t_1_7 - 1000.000000 s_1_7  > -952.838400
t_1_4 - t_2_7 - 1000.000000 s_2_7  > -955.364225
t_2_4 - t_1_7 - 1000.000000 s_1_7  > -952.838400
t_2_4 - t_2_7 - 1000.000000 s_2_7  > -955.364225
s_1_4 + s_1_8 + 1000 r_1_4_8 >= 2
- s_1_4 - s_1_8 - 1000 r_1_4_8 >= -1001
t_1_4 - t_1_8 - 1000.000000 u_1_4_8 - 0.000000 s_1_8  + 2000.000000 r_1_4_8 > -949.439700
s_2_4 + s_2_8 + 1000 r_2_4_8 >= 2
- s_2_4 - s_2_8 - 1000 r_2_4_8 >= -1001
t_2_4 - t_2_8 - 1000.000000 u_2_4_8 - 0.000000 s_2_8  + 2000.000000 r_2_4_8 > -956.290100
s_1_5 + s_1_1 + 1000 r_1_1_5 >= 2
- s_1_5 - s_1_1 - 1000 r_1_1_5 >= -1001
t_1_5 - t_1_1 + 1000.000000 u_1_1_5 - 6.219592 s_1_1  + 3.109796 s_1_8  + 3.109796 s_1_7  + 2000.000000 r_1_1_5 > 22.623189
s_2_5 + s_2_1 + 1000 r_2_1_5 >= 2
- s_2_5 - s_2_1 - 1000 r_2_1_5 >= -1001
t_2_5 - t_2_1 + 1000.000000 u_2_1_5 - 5.653373 s_2_1  + 2.826686 s_2_8  + 2.826686 s_2_7  + 2000.000000 r_2_1_5 > 41.863531
s_1_5 + s_1_2 + 1000 r_1_2_5 >= 2
- s_1_5 - s_1_2 - 1000 r_1_2_5 >= -1001
t_1_5 - t_1_2 + 1000.000000 u_1_2_5 - 3.109796 s_1_2  + 3.109796 s_1_7  + 2000.000000 r_1_2_5 > 22.761100
s_2_5 + s_2_2 + 1000 r_2_2_5 >= 2
- s_2_5 - s_2_2 - 1000 r_2_2_5 >= -1001
t_2_5 - t_2_2 + 1000.000000 u_2_2_5 - 2.826686 s_2_2  + 2.826686 s_2_7  + 2000.000000 r_2_2_5 > 41.871986
s_1_5 + s_1_3 + 1000 r_1_3_5 >= 2
- s_1_5 - s_1_3 - 1000 r_1_3_5 >= -1001
t_1_5 - t_1_3 + 1000.000000 u_1_3_5 - 6.219592 s_1_3  + 3.109796 s_1_8  + 3.109796 s_1_7  + 2000.000000 r_1_3_5 > 2.447456
s_2_5 + s_2_3 + 1000 r_2_3_5 >= 2
- s_2_5 - s_2_3 - 1000 r_2_3_5 >= -1001
t_2_5 - t_2_3 + 1000.000000 u_2_3_5 - 5.653373 s_2_3  + 2.826686 s_2_8  + 2.826686 s_2_7  + 2000.000000 r_2_3_5 > 5.561600
s_1_5 + s_1_4 + 1000 r_1_4_5 >= 2
- s_1_5 - s_1_4 - 1000 r_1_4_5 >= -1001
t_1_5 - t_1_4 + 1000.000000 u_1_4_5 - 3.109796 s_1_4  + 3.109796 s_1_7  + 2000.000000 r_1_4_5 > 4.979500
s_2_5 + s_2_4 + 1000 r_2_4_5 >= 2
- s_2_5 - s_2_4 - 1000 r_2_4_5 >= -1001
t_2_5 - t_2_4 + 1000.000000 u_2_4_5 - 2.826686 s_2_4  + 2.826686 s_2_7  + 2000.000000 r_2_4_5 > 8.442722
t_1_6 - t_1_5 - 1003.109796 s_1_5  + 3.109796 s_1_8  > -989.411000
t_1_6 - t_2_5 - 1002.826686 s_2_5  + 2.826686 s_2_8  > -979.477747
t_2_6 - t_1_5 - 1003.109796 s_1_5  + 3.109796 s_1_8  > -989.411000
t_2_6 - t_2_5 - 1002.826686 s_2_5  + 2.826686 s_2_8  > -979.477747
s_1_5 + s_1_7 + 1000 r_1_5_7 >= 2
- s_1_5 - s_1_7 - 1000 r_1_5_7 >= -1001
t_1_5 - t_1_7 - 1000.000000 u_1_5_7 - 0.000000 s_1_7  + 2000.000000 r_1_5_7 > -952.838400
s_2_5 + s_2_7 + 1000 r_2_5_7 >= 2
- s_2_5 - s_2_7 - 1000 r_2_5_7 >= -1001
t_2_5 - t_2_7 - 1000.000000 u_2_5_7 - 0.000000 s_2_7  + 2000.000000 r_2_5_7 > -955.364225
t_1_5 - t_1_8 - 1000.000000 s_1_8  > -949.439700
t_1_5 - t_2_8 - 1000.000000 s_2_8  > -956.290100
t_2_5 - t_1_8 - 1000.000000 s_1_8  > -949.439700
t_2_5 - t_2_8 - 1000.000000 s_2_8  > -956.290100
t_1_6 - t_1_7 - 1000.000000 s_1_7  > -952.838400
t_1_6 - t_2_7 - 1000.000000 s_2_7  > -955.364225
t_2_6 - t_1_7 - 1000.000000 s_1_7  > -952.838400
t_2_6 - t_2_7 - 1000.000000 s_2_7  > -955.364225
s_1_7 + s_1_5 + 1000 r_1_5_7 >= 2
- s_1_7 - s_1_5 - 1000 r_1_5_7 >= -1001
t_1_7 - t_1_5 + 1000.000000 u_1_5_7 - 3.109796 s_1_5  + 3.109796 s_1_8  + 2000.000000 r_1_5_7 > 10.589000
s_2_7 + s_2_5 + 1000 r_2_5_7 >= 2
- s_2_7 - s_2_5 - 1000 r_2_5_7 >= -1001
t_2_7 - t_2_5 + 1000.000000 u_2_5_7 - 2.826686 s_2_5  + 2.826686 s_2_8  + 2000.000000 r_2_5_7 > 20.522253
s_1_7 + s_1_8 + 1000 r_1_7_8 >= 2
- s_1_7 - s_1_8 - 1000 r_1_7_8 >= -1001
t_1_7 - t_1_8 - 1000.000000 u_1_7_8 - 0.000000 s_1_8  + 2000.000000 r_1_7_8 > -949.439700
s_2_7 + s_2_8 + 1000 r_2_7_8 >= 2
- s_2_7 - s_2_8 - 1000 r_2_7_8 >= -1001
t_2_7 - t_2_8 - 1000.000000 u_2_7_8 - 0.000000 s_2_8  + 2000.000000 r_2_7_8 > -956.290100
s_1_8 + s_1_2 + 1000 r_1_2_8 >= 2
- s_1_8 - s_1_2 - 1000 r_1_2_8 >= -1001
t_1_8 - t_1_2 + 1000.000000 u_1_2_8 - 3.109796 s_1_2  + 3.109796 s_1_7  + 2000.000000 r_1_2_8 > 22.761100
s_2_8 + s_2_2 + 1000 r_2_2_8 >= 2
- s_2_8 - s_2_2 - 1000 r_2_2_8 >= -1001
t_2_8 - t_2_2 + 1000.000000 u_2_2_8 - 2.826686 s_2_2  + 2.826686 s_2_7  + 2000.000000 r_2_2_8 > 41.871986
s_1_8 + s_1_4 + 1000 r_1_4_8 >= 2
- s_1_8 - s_1_4 - 1000 r_1_4_8 >= -1001
t_1_8 - t_1_4 + 1000.000000 u_1_4_8 - 3.109796 s_1_4  + 3.109796 s_1_7  + 2000.000000 r_1_4_8 > 4.979500
s_2_8 + s_2_4 + 1000 r_2_4_8 >= 2
- s_2_8 - s_2_4 - 1000 r_2_4_8 >= -1001
t_2_8 - t_2_4 + 1000.000000 u_2_4_8 - 2.826686 s_2_4  + 2.826686 s_2_7  + 2000.000000 r_2_4_8 > 8.442722
s_1_8 + s_1_7 + 1000 r_1_7_8 >= 2
- s_1_8 - s_1_7 - 1000 r_1_7_8 >= -1001
t_1_8 - t_1_7 + 1000.000000 u_1_7_8 - 0.000000 s_1_7  + 2000.000000 r_1_7_8 > 47.161600
s_2_8 + s_2_7 + 1000 r_2_7_8 >= 2
- s_2_8 - s_2_7 - 1000 r_2_7_8 >= -1001
t_2_8 - t_2_7 + 1000.000000 u_2_7_8 - 0.000000 s_2_7  + 2000.000000 r_2_7_8 > 44.635775
Binary
s_1_1
s_2_1
s_1_2
s_2_2
s_1_3
s_2_3
s_1_4
s_2_4
s_1_5
s_2_5
s_1_6
s_2_6
s_1_7
s_2_7
s_1_8
s_2_8
u_1_1_2
r_1_1_2
u_2_1_2
r_2_1_2
u_1_1_3
r_1_1_3
u_2_1_3
r_2_1_3
u_1_1_4
r_1_1_4
u_2_1_4
r_2_1_4
u_1_1_5
r_1_1_5
u_2_1_5
r_2_1_5
u_1_2_3
r_1_2_3
u_2_2_3
r_2_2_3
u_1_2_4
r_1_2_4
u_2_2_4
r_2_2_4
u_1_2_5
r_1_2_5
u_2_2_5
r_2_2_5
u_1_2_8
r_1_2_8
u_2_2_8
r_2_2_8
u_1_3_4
r_1_3_4
u_2_3_4
r_2_3_4
u_1_3_5
r_1_3_5
u_2_3_5
r_2_3_5
u_1_4_5
r_1_4_5
u_2_4_5
r_2_4_5
u_1_4_8
r_1_4_8
u_2_4_8
r_2_4_8
u_1_5_7
r_1_5_7
u_2_5_7
r_2_5_7
u_1_7_8
r_1_7_8
u_2_7_8
r_2_7_8

End
